Minimize
  - 39 y_0 - 23 y_1 - 11 y_2 - 52 y_3 - 43 y_4 - 64 y_5 - 48 y_6 - 47 y_7
   - 15 y_8 - 48 y_9 - 62 y_10 - 24 y_11 - 49 y_12 - 39 y_13 - 32 y_14
   - 46 y_15 - 62 y_16 - 36 y_17 - 36 y_18 - 15 y_19 - 35 y_20 - 44 y_21
   - 41 y_22 - 49 y_23 - 4 y_24 - 46 y_25 - 42 y_26 - 43 y_27 - 32 y_28
   - 10 y_29 - 40 y_30 - 46 y_31 - 18 y_32 - 29 y_34 - 40 y_35 - 48 y_36
   - 56 y_37 - 32 y_38 - 46 y_39 - 44 y_40 - 47 y_41 - 49 y_42 - 21 y_43
   - 35 y_44 - 24 y_45 - 38 y_46 - 20 y_47 - 42 y_48 - 11 y_49 + 40 x_0_1
   + 63 x_0_2 + 45 x_0_3 + 56 x_0_5 + 27 x_0_7 + 20 x_0_14 + 5 x_0_22
   + 69 x_0_24 + 11 x_0_27 + 43 x_0_28 + 36 x_0_30 + 30 x_0_31 + 43 x_0_32
   + 78 x_0_33 + 59 x_0_35 + 18 x_0_36 + 28 x_0_41 + 29 x_0_42 + 36 x_0_43
   + 65 x_0_45 + 61 x_0_48 + 42 x_1_2 + 51 x_1_4 + 97 x_1_5 + 49 x_1_6
   + 64 x_1_7 + 18 x_1_8 + 87 x_1_10 + 36 x_1_11 + 73 x_1_13 + 36 x_1_17
   + 25 x_1_20 + 53 x_1_23 + 39 x_1_24 + 45 x_1_25 + 54 x_1_26 + 44 x_1_27
   + 35 x_1_29 + 33 x_1_30 + 47 x_1_31 + 21 x_1_32 + 47 x_1_33 + 76 x_1_35
   + 74 x_1_37 + 67 x_1_39 + 14 x_1_43 + 7 x_1_47 + 79 x_1_48 + 25 x_1_49
   + 69 x_2_4 + 87 x_2_6 + 30 x_2_8 + 27 x_2_11 + 76 x_2_12 + 56 x_2_13
   + 52 x_2_14 + 106 x_2_16 + 55 x_2_18 + 28 x_2_19 + 60 x_2_20 + 67 x_2_22
   + 87 x_2_23 + 86 x_2_25 + 8 x_2_29 + 22 x_2_33 + 57 x_2_35 + 94 x_2_37
   + 73 x_2_39 + 32 x_2_43 + 67 x_2_46 + 36 x_2_47 + 61 x_2_48 + 35 x_3_4
   + 31 x_3_5 + 90 x_3_8 + 75 x_3_9 + 63 x_3_14 + 43 x_3_18 + 86 x_3_19
   + 66 x_3_20 + 97 x_3_24 + 84 x_3_25 + 51 x_3_27 + 43 x_3_28 + 84 x_3_29
   + 81 x_3_30 + 70 x_3_31 + 73 x_3_32 + 105 x_3_33 + 47 x_3_34 + 41 x_3_35
   + 36 x_3_37 + 42 x_3_38 + 15 x_3_39 + 65 x_3_42 + 71 x_3_43 + 60 x_3_44
   + 72 x_3_46 + 40 x_3_48 + 43 x_4_6 + 64 x_4_8 + 38 x_4_10 + 42 x_4_11
   + 51 x_4_13 + 15 x_4_17 + 15 x_4_18 + 61 x_4_19 + 9 x_4_26 + 17 x_4_27
   + 42 x_4_28 + 86 x_4_33 + 37 x_4_34 + 16 x_4_36 + 37 x_4_38 + 22 x_4_39
   + 33 x_4_42 + 45 x_4_43 + 26 x_4_44 + 55 x_4_47 + 65 x_4_49 + 36 x_5_7
   + 110 x_5_8 + 52 x_5_12 + 76 x_5_14 + 85 x_5_15 + 106 x_5_19 + 67 x_5_21
   + 52 x_5_22 + 64 x_5_23 + 120 x_5_24 + 56 x_5_27 + 108 x_5_29
   + 95 x_5_32 + 129 x_5_33 + 27 x_5_37 + 37 x_5_39 + 67 x_5_41 + 62 x_5_42
   + 90 x_5_43 + 98 x_5_45 + 79 x_5_46 + 58 x_6_7 + 67 x_6_8 + x_6_9
   + 68 x_6_11 + 91 x_6_13 + 11 x_6_15 + 60 x_6_16 + 38 x_6_17 + 28 x_6_20
   + 78 x_6_28 + 81 x_6_29 + 96 x_6_33 + 70 x_6_34 + 32 x_6_36 + 73 x_6_38
   + 13 x_6_42 + 56 x_6_43 + 21 x_6_46 + 97 x_6_48 + 74 x_6_49 + 75 x_7_8
   + 36 x_7_10 + 46 x_7_11 + 45 x_7_14 + 29 x_7_17 + 24 x_7_22 + 49 x_7_23
   + 84 x_7_24 + 73 x_7_29 + 59 x_7_32 + 93 x_7_33 + 6 x_7_39 + 34 x_7_40
   + 49 x_7_41 + 47 x_7_42 + 56 x_7_43 + 67 x_7_47 + 45 x_7_48 + 74 x_7_49
   + 36 x_8_11 + 90 x_8_12 + 4 x_8_19 + 83 x_8_21 + 59 x_8_22 + 22 x_8_24
   + 63 x_8_25 + 65 x_8_26 + 60 x_8_27 + 76 x_8_35 + 72 x_8_36 + 89 x_8_37
   + 54 x_8_38 + 62 x_8_40 + 65 x_8_41 + 54 x_8_45 + 11 x_8_47 + 80 x_8_48
   + 10 x_8_49 + 58 x_9_10 + 35 x_9_14 + 11 x_9_15 + 65 x_9_19 + 27 x_9_20
   + 96 x_9_21 + 10 x_9_23 + 87 x_9_24 + 10 x_9_25 + 50 x_9_26 + 77 x_9_28
   + 80 x_9_29 + 18 x_9_30 + 63 x_9_32 + 95 x_9_33 + 69 x_9_34 + 72 x_9_38
   + 8 x_9_41 + 55 x_9_43 + 29 x_9_44 + 96 x_9_45 + 20 x_9_46 + 56 x_9_47
   + 79 x_10_11 + 69 x_10_15 + 52 x_10_17 + 53 x_10_18 + 99 x_10_19
   + 64 x_10_20 + 76 x_10_21 + 42 x_10_22 + 104 x_10_29 + 54 x_10_31
   + 72 x_10_34 + 78 x_10_35 + 32 x_10_36 + 13 x_10_37 + 70 x_10_38
   + 46 x_10_42 + 83 x_10_43 + 59 x_10_44 + 65 x_10_46 + 92 x_10_47
   + 38 x_11_13 + 33 x_11_14 + 33 x_11_17 + 41 x_11_20 + 39 x_11_26
   + 48 x_11_27 + 27 x_11_29 + 12 x_11_34 + 56 x_11_36 + 67 x_11_37
   + 45 x_11_39 + 51 x_11_40 + 61 x_11_41 + 38 x_11_44 + 29 x_11_45
   + 50 x_11_46 + 44 x_11_48 + 22 x_12_13 + 100 x_12_15 + 58 x_12_17
   + 86 x_12_19 + 99 x_12_25 + 66 x_12_27 + 93 x_12_30 + 86 x_12_31
   + 98 x_12_33 + 42 x_12_34 + 22 x_12_35 + 63 x_12_36 + 68 x_12_40
   + 83 x_12_41 + 73 x_12_43 + 70 x_12_44 + 55 x_12_45 + 84 x_12_46
   + 53 x_13_17 + 70 x_13_19 + 69 x_13_20 + 10 x_13_21 + 56 x_13_22
   + 85 x_13_23 + 65 x_13_27 + 17 x_13_28 + 60 x_13_29 + 85 x_13_31
   + 78 x_13_33 + 27 x_13_34 + 67 x_13_36 + 67 x_13_37 + 21 x_13_38
   + 36 x_13_39 + 83 x_13_42 + 34 x_13_45 + 78 x_13_46 + 71 x_13_47
   + 6 x_13_48 + 37 x_14_15 + 67 x_14_16 + 16 x_14_17 + 20 x_14_18
   + 34 x_14_19 + 71 x_14_21 + 46 x_14_29 + 31 x_14_31 + 38 x_14_34
   + 67 x_14_35 + 35 x_14_36 + 42 x_14_38 + 25 x_14_40 + 35 x_14_42
   + 8 x_14_44 + 26 x_14_47 + 44 x_15_17 + 50 x_15_18 + 62 x_15_19
   + 44 x_15_22 + 85 x_15_24 + 34 x_15_27 + 83 x_15_28 + 80 x_15_29
   + 93 x_15_33 + 33 x_15_40 + 19 x_15_41 + 24 x_15_42 + 55 x_15_43
   + 53 x_15_47 + 103 x_15_48 + 53 x_16_17 + 99 x_16_19 + 75 x_16_21
   + 43 x_16_22 + 104 x_16_29 + 124 x_16_33 + 77 x_16_35 + 33 x_16_36
   + 69 x_16_38 + 38 x_16_39 + 47 x_16_42 + 60 x_16_44 + 67 x_16_46
   + 93 x_16_47 + 46 x_17_19 + 43 x_17_25 + 19 x_17_26 + 15 x_17_27
   + 40 x_17_28 + 35 x_17_30 + 32 x_17_31 + 73 x_17_33 + 24 x_17_36
   + 33 x_17_39 + 32 x_17_42 + 31 x_17_43 + 26 x_17_46 + 40 x_17_47
   + 51 x_17_49 + 47 x_18_19 + 24 x_18_20 + 13 x_18_22 + 49 x_18_25
   + 52 x_18_29 + 39 x_18_31 + 71 x_18_33 + 50 x_18_35 + 40 x_18_37
   + 29 x_18_39 + 38 x_18_42 + 19 x_18_44 + 32 x_18_46 + 41 x_18_47
   + 40 x_19_20 + 23 x_19_24 + 62 x_19_26 + 53 x_19_28 + 49 x_19_30
   + 14 x_19_32 + 73 x_19_35 + 63 x_19_41 + 42 x_19_44 + 45 x_19_46
   + 9 x_19_47 + 77 x_20_21 + 61 x_20_24 + 28 x_20_25 + 37 x_20_26
   + 20 x_20_27 + 54 x_20_28 + 18 x_20_30 + 32 x_20_36 + 51 x_20_37
   + 23 x_20_41 + 29 x_20_42 + 28 x_20_43 + 70 x_20_45 + 9 x_20_46
   + 76 x_20_48 + 81 x_21_24 + 103 x_21_25 + 27 x_21_28 + 91 x_21_31
   + 37 x_21_34 + 30 x_21_38 + 39 x_21_39 + 74 x_21_40 + 89 x_21_42
   + 68 x_21_43 + 86 x_21_46 + 4 x_21_48 + 77 x_21_49 + 74 x_22_24
   + 42 x_22_25 + 15 x_22_26 + 64 x_22_29 + 30 x_22_31 + 47 x_22_32
   + 83 x_22_33 + 29 x_22_37 + 41 x_22_43 + 19 x_22_44 + 68 x_22_45
   + 61 x_22_48 + 21 x_23_25 + 43 x_23_26 + 19 x_23_27 + 82 x_23_29
   + 26 x_23_30 + 8 x_23_31 + 98 x_23_33 + 21 x_23_36 + 37 x_23_37
   + 55 x_23_39 + 17 x_23_40 + 2 x_23_42 + 56 x_23_43 + 28 x_23_44
   + 24 x_23_46 + 60 x_23_47 + 90 x_23_48 + 76 x_23_49 + 85 x_24_25
   + 76 x_24_26 + 57 x_24_28 + 12 x_24_29 + 72 x_24_30 + 84 x_24_31
   + 27 x_24_32 + 56 x_24_38 + 90 x_24_42 + 34 x_24_43 + 67 x_24_46
   + 32 x_24_47 + 77 x_24_48 + 14 x_24_49 + 58 x_25_26 + 81 x_25_28
   + 79 x_25_29 + 14 x_25_31 + 92 x_25_33 + 73 x_25_34 + 99 x_25_35
   + 58 x_25_37 + 76 x_25_38 + 18 x_25_41 + 54 x_25_43 + 32 x_25_44
   + 98 x_25_45 + 53 x_25_47 + 71 x_25_49 + 25 x_26_27 + 53 x_26_30
   + 45 x_26_31 + 50 x_26_32 + 85 x_26_33 + 46 x_26_35 + 24 x_26_36
   + 30 x_26_38 + 14 x_26_39 + 42 x_26_41 + 57 x_26_47 + 65 x_26_49
   + 54 x_27_28 + 67 x_27_29 + 30 x_27_30 + 51 x_27_32 + 86 x_27_33
   + 47 x_27_34 + 69 x_27_35 + 12 x_27_36 + 49 x_27_38 + 38 x_27_39
   + 3 x_27_40 + 43 x_27_43 + 16 x_27_44 + 76 x_27_45 + 23 x_27_46
   + 63 x_27_49 + 44 x_28_29 + 39 x_28_32 + 64 x_28_33 + 10 x_28_34
   + 57 x_28_36 + 63 x_28_37 + 5 x_28_38 + 35 x_28_39 + 56 x_28_40
   + 71 x_28_42 + 41 x_28_43 + 50 x_28_44 + 54 x_28_47 + 77 x_29_31
   + 17 x_29_32 + 62 x_29_35 + 78 x_29_36 + 44 x_29_38 + 72 x_29_39
   + 70 x_29_40 + 54 x_29_44 + 34 x_29_45 + 28 x_29_47 + 12 x_29_49
   + 51 x_30_32 + 63 x_30_34 + 59 x_30_37 + 21 x_30_41 + 27 x_30_42
   + 40 x_30_47 + 94 x_30_48 + 60 x_31_32 + 93 x_31_33 + 89 x_31_35
   + 26 x_31_36 + 44 x_31_37 + 67 x_31_38 + 58 x_31_39 + 3 x_31_41
   + 9 x_31_42 + 25 x_31_44 + 92 x_31_45 + 70 x_31_49 + 35 x_32_33
   + 59 x_32_35 + 61 x_32_36 + 76 x_32_37 + 36 x_32_38 + 60 x_32_39
   + 53 x_32_40 + 37 x_32_44 + 44 x_32_46 + 17 x_32_47 + 15 x_32_49
   + 93 x_33_39 + 88 x_33_40 + 98 x_33_42 + 83 x_33_48 + 22 x_33_49
   + 30 x_34_35 + 53 x_34_36 + 7 x_34_38 + 36 x_34_39 + 63 x_34_41
   + 44 x_34_47 + 70 x_35_36 + 39 x_35_39 + 86 x_35_41 + 62 x_35_43
   + 68 x_35_44 + 34 x_35_45 + 82 x_35_46 + 4 x_35_48 + 70 x_35_49
   + 53 x_36_38 + 11 x_36_40 + 19 x_36_42 + 28 x_36_44 + 34 x_36_46
   + 61 x_36_47 + 75 x_36_49 + 59 x_37_38 + 30 x_37_40 + 40 x_37_41
   + 35 x_37_42 + 53 x_37_46 + 79 x_37_47 + 71 x_37_48 + 32 x_38_39
   + 51 x_38_40 + 65 x_38_41 + 66 x_38_42 + 38 x_38_43 + 45 x_38_44
   + 58 x_38_46 + 28 x_38_48 + 40 x_39_40 + 53 x_39_42 + 45 x_39_44
   + 58 x_39_46 + 46 x_40_43 + 19 x_41_46 + 54 x_41_47 + 71 x_41_49
   + 56 x_42_43 + 88 x_42_48 + 76 x_42_49 + 28 x_43_44 + 47 x_43_45
   + 35 x_43_46 + 67 x_44_45 + 79 x_45_46 + 45 x_45_49 + 84 x_46_48
   + 77 x_47_48 + 1823 Constant
Subject To
 c_0: y_25 = 1
 c_1_0: y_0 + y_17 + y_22 >= 1
 c_1_1: y_1 >= 1
 c_1_2: y_2 >= 1
 c_1_3: y_3 >= 1
 c_1_4: y_4 >= 1
 c_1_5: y_5 >= 1
 c_1_6: y_6 + y_9 + y_31 >= 1
 c_1_7: y_7 + y_39 >= 1
 c_1_8: y_8 + y_19 >= 1
 c_1_9: y_6 + y_9 + y_31 >= 1
 c_1_10: y_10 + y_16 >= 1
 c_1_11: y_11 >= 1
 c_1_12: y_12 >= 1
 c_1_13: y_13 + y_35 + y_48 >= 1
 c_1_14: y_14 >= 1
 c_1_15: y_15 + y_25 >= 1
 c_1_16: y_10 + y_16 >= 1
 c_1_17: y_0 + y_17 >= 1
 c_1_18: y_18 >= 1
 c_1_19: y_8 + y_19 >= 1
 c_1_20: y_20 + y_44 >= 1
 c_1_21: y_21 + y_48 >= 1
 c_1_22: y_0 + y_22 >= 1
 c_1_23: y_23 + y_41 + y_42 >= 1
 c_1_24: y_24 >= 1
 c_1_25: y_15 + y_25 >= 1
 c_1_26: y_26 >= 1
 c_1_27: y_27 + y_40 >= 1
 c_1_28: y_28 + y_38 >= 1
 c_1_29: y_29 >= 1
 c_1_30: y_30 >= 1
 c_1_31: y_6 + y_9 + y_31 + y_41 >= 1
 c_1_32: y_32 >= 1
 c_1_33: y_33 >= 1
 c_1_34: y_34 >= 1
 c_1_35: y_13 + y_35 + y_48 >= 1
 c_1_36: y_36 >= 1
 c_1_37: y_37 >= 1
 c_1_38: y_28 + y_38 >= 1
 c_1_39: y_7 + y_39 >= 1
 c_1_40: y_27 + y_40 >= 1
 c_1_41: y_23 + y_31 + y_41 + y_42 >= 1
 c_1_42: y_23 + y_41 + y_42 >= 1
 c_1_43: y_43 >= 1
 c_1_44: y_20 + y_44 >= 1
 c_1_45: y_45 >= 1
 c_1_46: y_46 >= 1
 c_1_47: y_47 >= 1
 c_1_48: y_13 + y_21 + y_35 + y_48 >= 1
 c_1_49: y_49 >= 1
 c_2_0: - 2 y_0 + x_0_1 + x_0_2 + x_0_3 + x_0_5 + x_0_7 + x_0_14 + x_0_22
   + x_0_24 + x_0_27 + x_0_28 + x_0_30 + x_0_31 + x_0_32 + x_0_33 + x_0_35
   + x_0_36 + x_0_41 + x_0_42 + x_0_43 + x_0_45 + x_0_48 = 0
 c_2_1: - 2 y_1 + x_0_1 + x_1_2 + x_1_4 + x_1_5 + x_1_6 + x_1_7 + x_1_8
   + x_1_10 + x_1_11 + x_1_13 + x_1_17 + x_1_20 + x_1_23 + x_1_24 + x_1_25
   + x_1_26 + x_1_27 + x_1_29 + x_1_30 + x_1_31 + x_1_32 + x_1_33 + x_1_35
   + x_1_37 + x_1_39 + x_1_43 + x_1_47 + x_1_48 + x_1_49 = 0
 c_2_2: - 2 y_2 + x_0_2 + x_1_2 + x_2_4 + x_2_6 + x_2_8 + x_2_11 + x_2_12
   + x_2_13 + x_2_14 + x_2_16 + x_2_18 + x_2_19 + x_2_20 + x_2_22 + x_2_23
   + x_2_25 + x_2_29 + x_2_33 + x_2_35 + x_2_37 + x_2_39 + x_2_43 + x_2_46
   + x_2_47 + x_2_48 = 0
 c_2_3: - 2 y_3 + x_0_3 + x_3_4 + x_3_5 + x_3_8 + x_3_9 + x_3_14 + x_3_18
   + x_3_19 + x_3_20 + x_3_24 + x_3_25 + x_3_27 + x_3_28 + x_3_29 + x_3_30
   + x_3_31 + x_3_32 + x_3_33 + x_3_34 + x_3_35 + x_3_37 + x_3_38 + x_3_39
   + x_3_42 + x_3_43 + x_3_44 + x_3_46 + x_3_48 = 0
 c_2_4: - 2 y_4 + x_1_4 + x_2_4 + x_3_4 + x_4_6 + x_4_8 + x_4_10 + x_4_11
   + x_4_13 + x_4_17 + x_4_18 + x_4_19 + x_4_26 + x_4_27 + x_4_28 + x_4_33
   + x_4_34 + x_4_36 + x_4_38 + x_4_39 + x_4_42 + x_4_43 + x_4_44 + x_4_47
   + x_4_49 = 0
 c_2_5: - 2 y_5 + x_0_5 + x_1_5 + x_3_5 + x_5_7 + x_5_8 + x_5_12 + x_5_14
   + x_5_15 + x_5_19 + x_5_21 + x_5_22 + x_5_23 + x_5_24 + x_5_27 + x_5_29
   + x_5_32 + x_5_33 + x_5_37 + x_5_39 + x_5_41 + x_5_42 + x_5_43 + x_5_45
   + x_5_46 = 0
 c_2_6: - 2 y_6 + x_1_6 + x_2_6 + x_4_6 + x_6_7 + x_6_8 + x_6_9 + x_6_11
   + x_6_13 + x_6_15 + x_6_16 + x_6_17 + x_6_20 + x_6_28 + x_6_29 + x_6_33
   + x_6_34 + x_6_36 + x_6_38 + x_6_42 + x_6_43 + x_6_46 + x_6_48 + x_6_49
   = 0
 c_2_7: - 2 y_7 + x_0_7 + x_1_7 + x_5_7 + x_6_7 + x_7_8 + x_7_10 + x_7_11
   + x_7_14 + x_7_17 + x_7_22 + x_7_23 + x_7_24 + x_7_29 + x_7_32 + x_7_33
   + x_7_39 + x_7_40 + x_7_41 + x_7_42 + x_7_43 + x_7_47 + x_7_48 + x_7_49
   = 0
 c_2_8: - 2 y_8 + x_1_8 + x_2_8 + x_3_8 + x_4_8 + x_5_8 + x_6_8 + x_7_8
   + x_8_11 + x_8_12 + x_8_19 + x_8_21 + x_8_22 + x_8_24 + x_8_25 + x_8_26
   + x_8_27 + x_8_35 + x_8_36 + x_8_37 + x_8_38 + x_8_40 + x_8_41 + x_8_45
   + x_8_47 + x_8_48 + x_8_49 = 0
 c_2_9: - 2 y_9 + x_3_9 + x_6_9 + x_9_10 + x_9_14 + x_9_15 + x_9_19
   + x_9_20 + x_9_21 + x_9_23 + x_9_24 + x_9_25 + x_9_26 + x_9_28 + x_9_29
   + x_9_30 + x_9_32 + x_9_33 + x_9_34 + x_9_38 + x_9_41 + x_9_43 + x_9_44
   + x_9_45 + x_9_46 + x_9_47 = 0
 c_2_10: - 2 y_10 + x_1_10 + x_4_10 + x_7_10 + x_9_10 + x_10_11 + x_10_15
   + x_10_17 + x_10_18 + x_10_19 + x_10_20 + x_10_21 + x_10_22 + x_10_29
   + x_10_31 + x_10_34 + x_10_35 + x_10_36 + x_10_37 + x_10_38 + x_10_42
   + x_10_43 + x_10_44 + x_10_46 + x_10_47 = 0
 c_2_11: - 2 y_11 + x_1_11 + x_2_11 + x_4_11 + x_6_11 + x_7_11 + x_8_11
   + x_10_11 + x_11_13 + x_11_14 + x_11_17 + x_11_20 + x_11_26 + x_11_27
   + x_11_29 + x_11_34 + x_11_36 + x_11_37 + x_11_39 + x_11_40 + x_11_41
   + x_11_44 + x_11_45 + x_11_46 + x_11_48 = 0
 c_2_12: - 2 y_12 + x_2_12 + x_5_12 + x_8_12 + x_12_13 + x_12_15 + x_12_17
   + x_12_19 + x_12_25 + x_12_27 + x_12_30 + x_12_31 + x_12_33 + x_12_34
   + x_12_35 + x_12_36 + x_12_40 + x_12_41 + x_12_43 + x_12_44 + x_12_45
   + x_12_46 = 0
 c_2_13: - 2 y_13 + x_1_13 + x_2_13 + x_4_13 + x_6_13 + x_11_13 + x_12_13
   + x_13_17 + x_13_19 + x_13_20 + x_13_21 + x_13_22 + x_13_23 + x_13_27
   + x_13_28 + x_13_29 + x_13_31 + x_13_33 + x_13_34 + x_13_36 + x_13_37
   + x_13_38 + x_13_39 + x_13_42 + x_13_45 + x_13_46 + x_13_47 + x_13_48
   = 0
 c_2_14: - 2 y_14 + x_0_14 + x_2_14 + x_3_14 + x_5_14 + x_7_14 + x_9_14
   + x_11_14 + x_14_15 + x_14_16 + x_14_17 + x_14_18 + x_14_19 + x_14_21
   + x_14_29 + x_14_31 + x_14_34 + x_14_35 + x_14_36 + x_14_38 + x_14_40
   + x_14_42 + x_14_44 + x_14_47 = 0
 c_2_15: - 2 y_15 + x_5_15 + x_6_15 + x_9_15 + x_10_15 + x_12_15 + x_14_15
   + x_15_17 + x_15_18 + x_15_19 + x_15_22 + x_15_24 + x_15_27 + x_15_28
   + x_15_29 + x_15_33 + x_15_40 + x_15_41 + x_15_42 + x_15_43 + x_15_47
   + x_15_48 = 0
 c_2_16: - 2 y_16 + x_2_16 + x_6_16 + x_14_16 + x_16_17 + x_16_19 + x_16_21
   + x_16_22 + x_16_29 + x_16_33 + x_16_35 + x_16_36 + x_16_38 + x_16_39
   + x_16_42 + x_16_44 + x_16_46 + x_16_47 = 0
 c_2_17: - 2 y_17 + x_1_17 + x_4_17 + x_6_17 + x_7_17 + x_10_17 + x_11_17
   + x_12_17 + x_13_17 + x_14_17 + x_15_17 + x_16_17 + x_17_19 + x_17_25
   + x_17_26 + x_17_27 + x_17_28 + x_17_30 + x_17_31 + x_17_33 + x_17_36
   + x_17_39 + x_17_42 + x_17_43 + x_17_46 + x_17_47 + x_17_49 = 0
 c_2_18: - 2 y_18 + x_2_18 + x_3_18 + x_4_18 + x_10_18 + x_14_18 + x_15_18
   + x_18_19 + x_18_20 + x_18_22 + x_18_25 + x_18_29 + x_18_31 + x_18_33
   + x_18_35 + x_18_37 + x_18_39 + x_18_42 + x_18_44 + x_18_46 + x_18_47
   = 0
 c_2_19: - 2 y_19 + x_2_19 + x_3_19 + x_4_19 + x_5_19 + x_8_19 + x_9_19
   + x_10_19 + x_12_19 + x_13_19 + x_14_19 + x_15_19 + x_16_19 + x_17_19
   + x_18_19 + x_19_20 + x_19_24 + x_19_26 + x_19_28 + x_19_30 + x_19_32
   + x_19_35 + x_19_41 + x_19_44 + x_19_46 + x_19_47 = 0
 c_2_20: - 2 y_20 + x_1_20 + x_2_20 + x_3_20 + x_6_20 + x_9_20 + x_10_20
   + x_11_20 + x_13_20 + x_18_20 + x_19_20 + x_20_21 + x_20_24 + x_20_25
   + x_20_26 + x_20_27 + x_20_28 + x_20_30 + x_20_36 + x_20_37 + x_20_41
   + x_20_42 + x_20_43 + x_20_45 + x_20_46 + x_20_48 = 0
 c_2_21: - 2 y_21 + x_5_21 + x_8_21 + x_9_21 + x_10_21 + x_13_21 + x_14_21
   + x_16_21 + x_20_21 + x_21_24 + x_21_25 + x_21_28 + x_21_31 + x_21_34
   + x_21_38 + x_21_39 + x_21_40 + x_21_42 + x_21_43 + x_21_46 + x_21_48
   + x_21_49 = 0
 c_2_22: - 2 y_22 + x_0_22 + x_2_22 + x_5_22 + x_7_22 + x_8_22 + x_10_22
   + x_13_22 + x_15_22 + x_16_22 + x_18_22 + x_22_24 + x_22_25 + x_22_26
   + x_22_29 + x_22_31 + x_22_32 + x_22_33 + x_22_37 + x_22_43 + x_22_44
   + x_22_45 + x_22_48 = 0
 c_2_23: - 2 y_23 + x_1_23 + x_2_23 + x_5_23 + x_7_23 + x_9_23 + x_13_23
   + x_23_25 + x_23_26 + x_23_27 + x_23_29 + x_23_30 + x_23_31 + x_23_33
   + x_23_36 + x_23_37 + x_23_39 + x_23_40 + x_23_42 + x_23_43 + x_23_44
   + x_23_46 + x_23_47 + x_23_48 + x_23_49 = 0
 c_2_24: - 2 y_24 + x_0_24 + x_1_24 + x_3_24 + x_5_24 + x_7_24 + x_8_24
   + x_9_24 + x_15_24 + x_19_24 + x_20_24 + x_21_24 + x_22_24 + x_24_25
   + x_24_26 + x_24_28 + x_24_29 + x_24_30 + x_24_31 + x_24_32 + x_24_38
   + x_24_42 + x_24_43 + x_24_46 + x_24_47 + x_24_48 + x_24_49 = 0
 c_2_25: - 2 y_25 + x_1_25 + x_2_25 + x_3_25 + x_8_25 + x_9_25 + x_12_25
   + x_17_25 + x_18_25 + x_20_25 + x_21_25 + x_22_25 + x_23_25 + x_24_25
   + x_25_26 + x_25_28 + x_25_29 + x_25_31 + x_25_33 + x_25_34 + x_25_35
   + x_25_37 + x_25_38 + x_25_41 + x_25_43 + x_25_44 + x_25_45 + x_25_47
   + x_25_49 = 0
 c_2_26: - 2 y_26 + x_1_26 + x_4_26 + x_8_26 + x_9_26 + x_11_26 + x_17_26
   + x_19_26 + x_20_26 + x_22_26 + x_23_26 + x_24_26 + x_25_26 + x_26_27
   + x_26_30 + x_26_31 + x_26_32 + x_26_33 + x_26_35 + x_26_36 + x_26_38
   + x_26_39 + x_26_41 + x_26_47 + x_26_49 = 0
 c_2_27: - 2 y_27 + x_0_27 + x_1_27 + x_3_27 + x_4_27 + x_5_27 + x_8_27
   + x_11_27 + x_12_27 + x_13_27 + x_15_27 + x_17_27 + x_20_27 + x_23_27
   + x_26_27 + x_27_28 + x_27_29 + x_27_30 + x_27_32 + x_27_33 + x_27_34
   + x_27_35 + x_27_36 + x_27_38 + x_27_39 + x_27_40 + x_27_43 + x_27_44
   + x_27_45 + x_27_46 + x_27_49 = 0
 c_2_28: - 2 y_28 + x_0_28 + x_3_28 + x_4_28 + x_6_28 + x_9_28 + x_13_28
   + x_15_28 + x_17_28 + x_19_28 + x_20_28 + x_21_28 + x_24_28 + x_25_28
   + x_27_28 + x_28_29 + x_28_32 + x_28_33 + x_28_34 + x_28_36 + x_28_37
   + x_28_38 + x_28_39 + x_28_40 + x_28_42 + x_28_43 + x_28_44 + x_28_47
   = 0
 c_2_29: - 2 y_29 + x_1_29 + x_2_29 + x_3_29 + x_5_29 + x_6_29 + x_7_29
   + x_9_29 + x_10_29 + x_11_29 + x_13_29 + x_14_29 + x_15_29 + x_16_29
   + x_18_29 + x_22_29 + x_23_29 + x_24_29 + x_25_29 + x_27_29 + x_28_29
   + x_29_31 + x_29_32 + x_29_35 + x_29_36 + x_29_38 + x_29_39 + x_29_40
   + x_29_44 + x_29_45 + x_29_47 + x_29_49 = 0
 c_2_30: - 2 y_30 + x_0_30 + x_1_30 + x_3_30 + x_9_30 + x_12_30 + x_17_30
   + x_19_30 + x_20_30 + x_23_30 + x_24_30 + x_26_30 + x_27_30 + x_30_32
   + x_30_34 + x_30_37 + x_30_41 + x_30_42 + x_30_47 + x_30_48 = 0
 c_2_31: - 2 y_31 + x_0_31 + x_1_31 + x_3_31 + x_10_31 + x_12_31 + x_13_31
   + x_14_31 + x_17_31 + x_18_31 + x_21_31 + x_22_31 + x_23_31 + x_24_31
   + x_25_31 + x_26_31 + x_29_31 + x_31_32 + x_31_33 + x_31_35 + x_31_36
   + x_31_37 + x_31_38 + x_31_39 + x_31_41 + x_31_42 + x_31_44 + x_31_45
   + x_31_49 = 0
 c_2_32: - 2 y_32 + x_0_32 + x_1_32 + x_3_32 + x_5_32 + x_7_32 + x_9_32
   + x_19_32 + x_22_32 + x_24_32 + x_26_32 + x_27_32 + x_28_32 + x_29_32
   + x_30_32 + x_31_32 + x_32_33 + x_32_35 + x_32_36 + x_32_37 + x_32_38
   + x_32_39 + x_32_40 + x_32_44 + x_32_46 + x_32_47 + x_32_49 = 0
 c_2_33: - 2 y_33 + x_0_33 + x_1_33 + x_2_33 + x_3_33 + x_4_33 + x_5_33
   + x_6_33 + x_7_33 + x_9_33 + x_12_33 + x_13_33 + x_15_33 + x_16_33
   + x_17_33 + x_18_33 + x_22_33 + x_23_33 + x_25_33 + x_26_33 + x_27_33
   + x_28_33 + x_31_33 + x_32_33 + x_33_39 + x_33_40 + x_33_42 + x_33_48
   + x_33_49 = 0
 c_2_34: - 2 y_34 + x_3_34 + x_4_34 + x_6_34 + x_9_34 + x_10_34 + x_11_34
   + x_12_34 + x_13_34 + x_14_34 + x_21_34 + x_25_34 + x_27_34 + x_28_34
   + x_30_34 + x_34_35 + x_34_36 + x_34_38 + x_34_39 + x_34_41 + x_34_47
   = 0
 c_2_35: - 2 y_35 + x_0_35 + x_1_35 + x_2_35 + x_3_35 + x_8_35 + x_10_35
   + x_12_35 + x_14_35 + x_16_35 + x_18_35 + x_19_35 + x_25_35 + x_26_35
   + x_27_35 + x_29_35 + x_31_35 + x_32_35 + x_34_35 + x_35_36 + x_35_39
   + x_35_41 + x_35_43 + x_35_44 + x_35_45 + x_35_46 + x_35_48 + x_35_49
   = 0
 c_2_36: - 2 y_36 + x_0_36 + x_4_36 + x_6_36 + x_8_36 + x_10_36 + x_11_36
   + x_12_36 + x_13_36 + x_14_36 + x_16_36 + x_17_36 + x_20_36 + x_23_36
   + x_26_36 + x_27_36 + x_28_36 + x_29_36 + x_31_36 + x_32_36 + x_34_36
   + x_35_36 + x_36_38 + x_36_40 + x_36_42 + x_36_44 + x_36_46 + x_36_47
   + x_36_49 = 0
 c_2_37: - 2 y_37 + x_1_37 + x_2_37 + x_3_37 + x_5_37 + x_8_37 + x_10_37
   + x_11_37 + x_13_37 + x_18_37 + x_20_37 + x_22_37 + x_23_37 + x_25_37
   + x_28_37 + x_30_37 + x_31_37 + x_32_37 + x_37_38 + x_37_40 + x_37_41
   + x_37_42 + x_37_46 + x_37_47 + x_37_48 = 0
 c_2_38: - 2 y_38 + x_3_38 + x_4_38 + x_6_38 + x_8_38 + x_9_38 + x_10_38
   + x_13_38 + x_14_38 + x_16_38 + x_21_38 + x_24_38 + x_25_38 + x_26_38
   + x_27_38 + x_28_38 + x_29_38 + x_31_38 + x_32_38 + x_34_38 + x_36_38
   + x_37_38 + x_38_39 + x_38_40 + x_38_41 + x_38_42 + x_38_43 + x_38_44
   + x_38_46 + x_38_48 = 0
 c_2_39: - 2 y_39 + x_1_39 + x_2_39 + x_3_39 + x_4_39 + x_5_39 + x_7_39
   + x_11_39 + x_13_39 + x_16_39 + x_17_39 + x_18_39 + x_21_39 + x_23_39
   + x_26_39 + x_27_39 + x_28_39 + x_29_39 + x_31_39 + x_32_39 + x_33_39
   + x_34_39 + x_35_39 + x_38_39 + x_39_40 + x_39_42 + x_39_44 + x_39_46
   = 0
 c_2_40: - 2 y_40 + x_7_40 + x_8_40 + x_11_40 + x_12_40 + x_14_40 + x_15_40
   + x_21_40 + x_23_40 + x_27_40 + x_28_40 + x_29_40 + x_32_40 + x_33_40
   + x_36_40 + x_37_40 + x_38_40 + x_39_40 + x_40_43 = 0
 c_2_41: - 2 y_41 + x_0_41 + x_5_41 + x_7_41 + x_8_41 + x_9_41 + x_11_41
   + x_12_41 + x_15_41 + x_19_41 + x_20_41 + x_25_41 + x_26_41 + x_30_41
   + x_31_41 + x_34_41 + x_35_41 + x_37_41 + x_38_41 + x_41_46 + x_41_47
   + x_41_49 = 0
 c_2_42: - 2 y_42 + x_0_42 + x_3_42 + x_4_42 + x_5_42 + x_6_42 + x_7_42
   + x_10_42 + x_13_42 + x_14_42 + x_15_42 + x_16_42 + x_17_42 + x_18_42
   + x_20_42 + x_21_42 + x_23_42 + x_24_42 + x_28_42 + x_30_42 + x_31_42
   + x_33_42 + x_36_42 + x_37_42 + x_38_42 + x_39_42 + x_42_43 + x_42_48
   + x_42_49 = 0
 c_2_43: - 2 y_43 + x_0_43 + x_1_43 + x_2_43 + x_3_43 + x_4_43 + x_5_43
   + x_6_43 + x_7_43 + x_9_43 + x_10_43 + x_12_43 + x_15_43 + x_17_43
   + x_20_43 + x_21_43 + x_22_43 + x_23_43 + x_24_43 + x_25_43 + x_27_43
   + x_28_43 + x_35_43 + x_38_43 + x_40_43 + x_42_43 + x_43_44 + x_43_45
   + x_43_46 = 0
 c_2_44: - 2 y_44 + x_3_44 + x_4_44 + x_9_44 + x_10_44 + x_11_44 + x_12_44
   + x_14_44 + x_16_44 + x_18_44 + x_19_44 + x_22_44 + x_23_44 + x_25_44
   + x_27_44 + x_28_44 + x_29_44 + x_31_44 + x_32_44 + x_35_44 + x_36_44
   + x_38_44 + x_39_44 + x_43_44 + x_44_45 = 0
 c_2_45: - 2 y_45 + x_0_45 + x_5_45 + x_8_45 + x_9_45 + x_11_45 + x_12_45
   + x_13_45 + x_20_45 + x_22_45 + x_25_45 + x_27_45 + x_29_45 + x_31_45
   + x_35_45 + x_43_45 + x_44_45 + x_45_46 + x_45_49 = 0
 c_2_46: - 2 y_46 + x_2_46 + x_3_46 + x_5_46 + x_6_46 + x_9_46 + x_10_46
   + x_11_46 + x_12_46 + x_13_46 + x_16_46 + x_17_46 + x_18_46 + x_19_46
   + x_20_46 + x_21_46 + x_23_46 + x_24_46 + x_27_46 + x_32_46 + x_35_46
   + x_36_46 + x_37_46 + x_38_46 + x_39_46 + x_41_46 + x_43_46 + x_45_46
   + x_46_48 = 0
 c_2_47: - 2 y_47 + x_1_47 + x_2_47 + x_4_47 + x_7_47 + x_8_47 + x_9_47
   + x_10_47 + x_13_47 + x_14_47 + x_15_47 + x_16_47 + x_17_47 + x_18_47
   + x_19_47 + x_23_47 + x_24_47 + x_25_47 + x_26_47 + x_28_47 + x_29_47
   + x_30_47 + x_32_47 + x_34_47 + x_36_47 + x_37_47 + x_41_47 + x_47_48
   = 0
 c_2_48: - 2 y_48 + x_0_48 + x_1_48 + x_2_48 + x_3_48 + x_6_48 + x_7_48
   + x_8_48 + x_11_48 + x_13_48 + x_15_48 + x_20_48 + x_21_48 + x_22_48
   + x_23_48 + x_24_48 + x_30_48 + x_33_48 + x_35_48 + x_37_48 + x_38_48
   + x_42_48 + x_46_48 + x_47_48 = 0
 c_2_49: - 2 y_49 + x_1_49 + x_4_49 + x_6_49 + x_7_49 + x_8_49 + x_17_49
   + x_21_49 + x_23_49 + x_24_49 + x_25_49 + x_26_49 + x_27_49 + x_29_49
   + x_31_49 + x_32_49 + x_33_49 + x_35_49 + x_36_49 + x_41_49 + x_42_49
   + x_45_49 = 0
Bounds
 Constant = 1
Binaries
 y_0 y_1 y_2 y_3 y_4 y_5 y_6 y_7 y_8 y_9 y_10 y_11 y_12 y_13 y_14 y_15 y_16
 y_17 y_18 y_19 y_20 y_21 y_22 y_23 y_24 y_25 y_26 y_27 y_28 y_29 y_30 y_31
 y_32 y_33 y_34 y_35 y_36 y_37 y_38 y_39 y_40 y_41 y_42 y_43 y_44 y_45 y_46
 y_47 y_48 y_49 x_0_1 x_0_2 x_0_3 x_0_5 x_0_7 x_0_14 x_0_22 x_0_24 x_0_27
 x_0_28 x_0_30 x_0_31 x_0_32 x_0_33 x_0_35 x_0_36 x_0_41 x_0_42 x_0_43
 x_0_45 x_0_48 x_1_2 x_1_4 x_1_5 x_1_6 x_1_7 x_1_8 x_1_10 x_1_11 x_1_13
 x_1_17 x_1_20 x_1_23 x_1_24 x_1_25 x_1_26 x_1_27 x_1_29 x_1_30 x_1_31
 x_1_32 x_1_33 x_1_35 x_1_37 x_1_39 x_1_43 x_1_47 x_1_48 x_1_49 x_2_4 x_2_6
 x_2_8 x_2_11 x_2_12 x_2_13 x_2_14 x_2_16 x_2_18 x_2_19 x_2_20 x_2_22
 x_2_23 x_2_25 x_2_29 x_2_33 x_2_35 x_2_37 x_2_39 x_2_43 x_2_46 x_2_47
 x_2_48 x_3_4 x_3_5 x_3_8 x_3_9 x_3_14 x_3_18 x_3_19 x_3_20 x_3_24 x_3_25
 x_3_27 x_3_28 x_3_29 x_3_30 x_3_31 x_3_32 x_3_33 x_3_34 x_3_35 x_3_37
 x_3_38 x_3_39 x_3_42 x_3_43 x_3_44 x_3_46 x_3_48 x_4_6 x_4_8 x_4_10 x_4_11
 x_4_13 x_4_17 x_4_18 x_4_19 x_4_26 x_4_27 x_4_28 x_4_33 x_4_34 x_4_36
 x_4_38 x_4_39 x_4_42 x_4_43 x_4_44 x_4_47 x_4_49 x_5_7 x_5_8 x_5_12 x_5_14
 x_5_15 x_5_19 x_5_21 x_5_22 x_5_23 x_5_24 x_5_27 x_5_29 x_5_32 x_5_33
 x_5_37 x_5_39 x_5_41 x_5_42 x_5_43 x_5_45 x_5_46 x_6_7 x_6_8 x_6_9 x_6_11
 x_6_13 x_6_15 x_6_16 x_6_17 x_6_20 x_6_28 x_6_29 x_6_33 x_6_34 x_6_36
 x_6_38 x_6_42 x_6_43 x_6_46 x_6_48 x_6_49 x_7_8 x_7_10 x_7_11 x_7_14
 x_7_17 x_7_22 x_7_23 x_7_24 x_7_29 x_7_32 x_7_33 x_7_39 x_7_40 x_7_41
 x_7_42 x_7_43 x_7_47 x_7_48 x_7_49 x_8_11 x_8_12 x_8_19 x_8_21 x_8_22
 x_8_24 x_8_25 x_8_26 x_8_27 x_8_35 x_8_36 x_8_37 x_8_38 x_8_40 x_8_41
 x_8_45 x_8_47 x_8_48 x_8_49 x_9_10 x_9_14 x_9_15 x_9_19 x_9_20 x_9_21
 x_9_23 x_9_24 x_9_25 x_9_26 x_9_28 x_9_29 x_9_30 x_9_32 x_9_33 x_9_34
 x_9_38 x_9_41 x_9_43 x_9_44 x_9_45 x_9_46 x_9_47 x_10_11 x_10_15 x_10_17
 x_10_18 x_10_19 x_10_20 x_10_21 x_10_22 x_10_29 x_10_31 x_10_34 x_10_35
 x_10_36 x_10_37 x_10_38 x_10_42 x_10_43 x_10_44 x_10_46 x_10_47 x_11_13
 x_11_14 x_11_17 x_11_20 x_11_26 x_11_27 x_11_29 x_11_34 x_11_36 x_11_37
 x_11_39 x_11_40 x_11_41 x_11_44 x_11_45 x_11_46 x_11_48 x_12_13 x_12_15
 x_12_17 x_12_19 x_12_25 x_12_27 x_12_30 x_12_31 x_12_33 x_12_34 x_12_35
 x_12_36 x_12_40 x_12_41 x_12_43 x_12_44 x_12_45 x_12_46 x_13_17 x_13_19
 x_13_20 x_13_21 x_13_22 x_13_23 x_13_27 x_13_28 x_13_29 x_13_31 x_13_33
 x_13_34 x_13_36 x_13_37 x_13_38 x_13_39 x_13_42 x_13_45 x_13_46 x_13_47
 x_13_48 x_14_15 x_14_16 x_14_17 x_14_18 x_14_19 x_14_21 x_14_29 x_14_31
 x_14_34 x_14_35 x_14_36 x_14_38 x_14_40 x_14_42 x_14_44 x_14_47 x_15_17
 x_15_18 x_15_19 x_15_22 x_15_24 x_15_27 x_15_28 x_15_29 x_15_33 x_15_40
 x_15_41 x_15_42 x_15_43 x_15_47 x_15_48 x_16_17 x_16_19 x_16_21 x_16_22
 x_16_29 x_16_33 x_16_35 x_16_36 x_16_38 x_16_39 x_16_42 x_16_44 x_16_46
 x_16_47 x_17_19 x_17_25 x_17_26 x_17_27 x_17_28 x_17_30 x_17_31 x_17_33
 x_17_36 x_17_39 x_17_42 x_17_43 x_17_46 x_17_47 x_17_49 x_18_19 x_18_20
 x_18_22 x_18_25 x_18_29 x_18_31 x_18_33 x_18_35 x_18_37 x_18_39 x_18_42
 x_18_44 x_18_46 x_18_47 x_19_20 x_19_24 x_19_26 x_19_28 x_19_30 x_19_32
 x_19_35 x_19_41 x_19_44 x_19_46 x_19_47 x_20_21 x_20_24 x_20_25 x_20_26
 x_20_27 x_20_28 x_20_30 x_20_36 x_20_37 x_20_41 x_20_42 x_20_43 x_20_45
 x_20_46 x_20_48 x_21_24 x_21_25 x_21_28 x_21_31 x_21_34 x_21_38 x_21_39
 x_21_40 x_21_42 x_21_43 x_21_46 x_21_48 x_21_49 x_22_24 x_22_25 x_22_26
 x_22_29 x_22_31 x_22_32 x_22_33 x_22_37 x_22_43 x_22_44 x_22_45 x_22_48
 x_23_25 x_23_26 x_23_27 x_23_29 x_23_30 x_23_31 x_23_33 x_23_36 x_23_37
 x_23_39 x_23_40 x_23_42 x_23_43 x_23_44 x_23_46 x_23_47 x_23_48 x_23_49
 x_24_25 x_24_26 x_24_28 x_24_29 x_24_30 x_24_31 x_24_32 x_24_38 x_24_42
 x_24_43 x_24_46 x_24_47 x_24_48 x_24_49 x_25_26 x_25_28 x_25_29 x_25_31
 x_25_33 x_25_34 x_25_35 x_25_37 x_25_38 x_25_41 x_25_43 x_25_44 x_25_45
 x_25_47 x_25_49 x_26_27 x_26_30 x_26_31 x_26_32 x_26_33 x_26_35 x_26_36
 x_26_38 x_26_39 x_26_41 x_26_47 x_26_49 x_27_28 x_27_29 x_27_30 x_27_32
 x_27_33 x_27_34 x_27_35 x_27_36 x_27_38 x_27_39 x_27_40 x_27_43 x_27_44
 x_27_45 x_27_46 x_27_49 x_28_29 x_28_32 x_28_33 x_28_34 x_28_36 x_28_37
 x_28_38 x_28_39 x_28_40 x_28_42 x_28_43 x_28_44 x_28_47 x_29_31 x_29_32
 x_29_35 x_29_36 x_29_38 x_29_39 x_29_40 x_29_44 x_29_45 x_29_47 x_29_49
 x_30_32 x_30_34 x_30_37 x_30_41 x_30_42 x_30_47 x_30_48 x_31_32 x_31_33
 x_31_35 x_31_36 x_31_37 x_31_38 x_31_39 x_31_41 x_31_42 x_31_44 x_31_45
 x_31_49 x_32_33 x_32_35 x_32_36 x_32_37 x_32_38 x_32_39 x_32_40 x_32_44
 x_32_46 x_32_47 x_32_49 x_33_39 x_33_40 x_33_42 x_33_48 x_33_49 x_34_35
 x_34_36 x_34_38 x_34_39 x_34_41 x_34_47 x_35_36 x_35_39 x_35_41 x_35_43
 x_35_44 x_35_45 x_35_46 x_35_48 x_35_49 x_36_38 x_36_40 x_36_42 x_36_44
 x_36_46 x_36_47 x_36_49 x_37_38 x_37_40 x_37_41 x_37_42 x_37_46 x_37_47
 x_37_48 x_38_39 x_38_40 x_38_41 x_38_42 x_38_43 x_38_44 x_38_46 x_38_48
 x_39_40 x_39_42 x_39_44 x_39_46 x_40_43 x_41_46 x_41_47 x_41_49 x_42_43
 x_42_48 x_42_49 x_43_44 x_43_45 x_43_46 x_44_45 x_45_46 x_45_49 x_46_48
 x_47_48
End
